46
75
52	20
51	20
50	27
49	16
48	28
47	23
46	19
45	28
44	22
43	20
42	15
41	21
40	14
39	20
38	26
37	15
36	12
35	23
34	26
33	30
32	26
31	23
30	13
29	19
28	24
27	21
26	15
25	21
24	19
23	20
22	20
21	30
20	25
19	29
18	18
17	23
16	27
15	27
14	23
13	23
12	19
11	33
10	21
9	20
8	18
7	18
